letting n_nurses=25
letting n_days=7
letting n_shift_types=4
letting max_covers=15
letting t_covers=87
letting covers=[13,3,0,0,13,0,3,0,13,0,2,0,2,0,2,0,2,1,15,0,2,13,0,0,3,0,0,0]
letting prefes=[2,2,3,3,1,1,3,3,1,3,1,1,1,1,1,1,1,3,1,2,2,2,3,3,1,1,1,1,1,1,1,3,4,1,1,3,1,1,1,1,2,3,1,2,1,3,1,3,1,1,1,3,2,3,1,2,2,2,3,1,4,1,1,3,2,3,2,2,1,3,2,1,1,1,1,2,2,2,3,1,1,3,2,1,2,2,3,1,4,1,1,3,2,3,2,2,2,3,1,2,1,3,1,2,2,2,3,1,2,3,1,2,1,2,3,3,1,1,1,1,2,3,2,2,2,3,2,2,1,3,1,3,1,2,3,3,2,3,2,2,2,2,3,3,4,1,1,3,1,3,2,2,2,3,1,2,1,1,2,3,2,2,3,3,2,3,1,2,2,2,3,3,4,1,1,3,1,3,2,2,2,3,1,2,4,3,1,3,2,2,3,3,2,3,1,2,2,1,3,3,4,4,1,3,1,3,2,2,2,1,1,2,1,1,1,3,2,1,3,3,2,1,1,2,2,2,3,1,4,3,3,3,1,3,1,1,2,3,1,2,1,3,1,3,2,2,3,1,2,3,1,2,2,2,3,3,4,1,1,1,3,3,2,2,2,3,3,2,1,3,1,3,2,2,3,3,2,3,3,2,2,2,3,3,4,4,1,3,1,3,2,2,2,3,1,2,1,3,1,2,2,2,3,3,2,3,1,2,2,2,3,3,4,3,3,3,1,3,2,2,2,3,1,2,1,1,1,3,2,2,3,3,2,3,1,2,2,2,3,3,4,1,1,1,1,3,2,2,2,3,1,2,4,3,1,3,2,2,3,3,2,3,1,2,2,2,3,3,4,1,1,3,1,3,2,2,2,3,1,2,1,3,1,3,2,2,3,3,2,3,1,2,2,2,1,3,4,1,3,3,1,1,2,2,2,3,1,2,1,3,1,3,2,2,1,3,2,3,1,2,2,2,1,3,4,3,1,3,1,1,2,2,2,3,1,2,1,3,1,3,2,2,1,3,2,3,1,2,2,1,3,3,4,1,1,3,1,3,2,2,2,3,1,2,1,3,1,2,2,1,3,3,2,3,1,2,2,2,3,3,4,1,1,1,1,3,2,2,1,1,1,1,4,3,2,3,2,2,3,3,1,1,1,1,1,2,3,1,4,1,1,3,1,3,1,1,2,1,2,2,1,3,1,3,1,2,3,1,2,1,2,2,2,2,3,3,4,1,1,3,1,3,2,2,2,3,1,2,4,3,1,3,2,2,3,3,2,3,1,2,2,2,3,3,4,1,3,3,1,3,2,2,2,3,1,2,4,3,2,3,2,2,3,3,2,3,1,2,1,1,1,3,1,1,1,3,1,1,2,2,1,1,1,1,1,3,1,3,1,1,1,3,1,1,1,1,2,1,1,3,1,1,1,1,2,1,1,1,2,3,2,2,1,3,1,3,2,1,1,3,2,3,2,2,2,2,3,1,4,1,1,3,1,3,2,2,2,3,1,2,1,3,2,3,2,2,3,1,2,3,1,2,1,2,3,3,1,1,1,3,1,3,2,2,1,3,1,1,1,1,2,3,1,2,3,3,1,3,1,1]
letting ub =  257
